n = 30
Q1 = [0 45 7 48 27 35 41 46 8 17 43 11 6 19 36 22 14 44 8 40 31 40 18 9 8 47 19 22 10 8; 0 0 15 10 31 37 14 16 6 8 17 39 19 9 19 45 20 17 50 16 38 32 12 32 34 19 23 44 5 20; 0 0 0 27 39 29 17 7 5 5 32 33 47 22 14 20 35 25 36 5 15 10 42 24 16 35 39 9 20 31; 0 0 0 0 38 49 40 11 31 8 22 11 11 41 39 20 17 50 32 43 6 19 19 14 44 10 12 43 28 28; 0 0 0 0 0 11 32 27 38 34 20 22 20 38 41 50 41 22 22 47 20 6 27 48 37 18 19 25 39 8; 0 0 0 0 0 0 45 36 42 24 20 27 6 13 8 12 41 19 27 40 50 13 5 9 30 24 48 7 44 22; 0 0 0 0 0 0 0 43 8 27 22 19 28 31 18 7 8 31 11 11 33 7 33 38 35 11 31 6 10 28; 0 0 0 0 0 0 0 0 45 8 41 13 14 8 47 49 7 37 26 28 46 18 40 49 37 28 42 6 30 35; 0 0 0 0 0 0 0 0 0 11 8 33 34 25 6 17 34 26 13 7 5 7 33 46 14 36 38 26 26 46; 0 0 0 0 0 0 0 0 0 0 29 17 28 47 43 11 5 6 42 35 5 25 13 43 14 17 26 41 8 9; 0 0 0 0 0 0 0 0 0 0 0 30 33 14 42 17 30 15 7 25 36 44 16 29 36 36 11 7 41 12; 0 0 0 0 0 0 0 0 0 0 0 0 34 49 21 13 49 49 35 8 16 23 22 17 22 13 21 22 48 47; 0 0 0 0 0 0 0 0 0 0 0 0 0 24 11 8 20 36 7 50 46 10 49 16 38 6 29 40 22 13; 0 0 0 0 0 0 0 0 0 0 0 0 0 0 48 22 8 25 11 20 6 35 11 13 15 44 39 24 21 7; 0 0 0 0 0 0 0 0 0 0 0 0 0 0 0 6 31 42 42 18 30 32 23 33 28 21 22 41 13 41; 0 0 0 0 0 0 0 0 0 0 0 0 0 0 0 0 8 24 14 11 29 6 32 26 37 39 8 32 47 28; 0 0 0 0 0 0 0 0 0 0 0 0 0 0 0 0 0 45 34 9 30 24 11 28 38 49 48 17 6 25; 0 0 0 0 0 0 0 0 0 0 0 0 0 0 0 0 0 0 25 45 41 35 9 24 26 49 42 38 49 23; 0 0 0 0 0 0 0 0 0 0 0 0 0 0 0 0 0 0 0 13 39 28 17 37 30 40 18 42 28 23; 0 0 0 0 0 0 0 0 0 0 0 0 0 0 0 0 0 0 0 0 6 44 25 14 20 14 5 13 6 13; 0 0 0 0 0 0 0 0 0 0 0 0 0 0 0 0 0 0 0 0 0 32 17 6 28 5 8 38 42 30; 0 0 0 0 0 0 0 0 0 0 0 0 0 0 0 0 0 0 0 0 0 0 27 28 33 37 40 36 19 35; 0 0 0 0 0 0 0 0 0 0 0 0 0 0 0 0 0 0 0 0 0 0 0 38 23 21 26 28 26 50; 0 0 0 0 0 0 0 0 0 0 0 0 0 0 0 0 0 0 0 0 0 0 0 0 27 13 10 29 33 31; 0 0 0 0 0 0 0 0 0 0 0 0 0 0 0 0 0 0 0 0 0 0 0 0 0 16 26 20 33 15; 0 0 0 0 0 0 0 0 0 0 0 0 0 0 0 0 0 0 0 0 0 0 0 0 0 0 24 21 41 38; 0 0 0 0 0 0 0 0 0 0 0 0 0 0 0 0 0 0 0 0 0 0 0 0 0 0 0 17 27 24; 0 0 0 0 0 0 0 0 0 0 0 0 0 0 0 0 0 0 0 0 0 0 0 0 0 0 0 0 17 35; 0 0 0 0 0 0 0 0 0 0 0 0 0 0 0 0 0 0 0 0 0 0 0 0 0 0 0 0 0 43; 0 0 0 0 0 0 0 0 0 0 0 0 0 0 0 0 0 0 0 0 0 0 0 0 0 0 0 0 0 0]
Q2=[0.0 2.0 45.0 0.0 7.0 8.0 8.0 0.0 42.0 50.0 7.0 42.0 47.0 37.0 0.0 41.0 37.0 6.0 44.0 10.0 5.0 5.0 41.0 44.0 50.0 1.0 34.0 49.0 42.0 49.0; 0.0 0.0 43.0 45.0 18.0 4.0 44.0 36.0 46.0 45.0 47.0 3.0 32.0 44.0 36.0 4.0 49.0 48.0 0.0 44.0 4.0 16.0 44.0 3.0 8.0 44.0 48.0 4.0 50.0 48.0; 0.0 0.0 0.0 13.0 8.0 8.0 47.0 47.0 49.0 46.0 6.0 9.0 2.0 38.0 46.0 33.0 11.0 23.0 8.0 48.0 36.0 50.0 3.0 29.0 44.0 4.0 11.0 46.0 50.0 11.0; 0.0 0.0 0.0 0.0 8.0 1.0 3.0 40.0 13.0 50.0 41.0 49.0 43.0 6.0 11.0 50.0 44.0 0.0 6.0 4.0 49.0 31.0 40.0 44.0 2.0 47.0 48.0 1.0 10.0 22.0; 0.0 0.0 0.0 0.0 0.0 47.0 11.0 17.0 4.0 0.0 30.0 38.0 40.0 3.0 6.0 0.0 2.0 30.0 46.0 1.0 37.0 46.0 9.0 0.0 0.0 35.0 46.0 12.0 11.0 44.0; 0.0 0.0 0.0 0.0 0.0 0.0 4.0 13.0 2.0 46.0 48.0 9.0 45.0 40.0 45.0 48.0 0.0 35.0 14.0 1.0 0.0 47.0 48.0 42.0 19.0 42.0 0.0 43.0 3.0 40.0; 0.0 0.0 0.0 0.0 0.0 0.0 0.0 1.0 45.0 20.0 35.0 37.0 15.0 18.0 40.0 47.0 43.0 12.0 44.0 50.0 17.0 48.0 9.0 3.0 6.0 50.0 12.0 44.0 40.0 17.0; 0.0 0.0 0.0 0.0 0.0 0.0 0.0 0.0 4.0 49.0 5.0 49.0 41.0 44.0 0.0 0.0 50.0 7.0 7.0 18.0 2.0 43.0 2.0 0.0 9.0 18.0 3.0 47.0 11.0 1.0; 0.0 0.0 0.0 0.0 0.0 0.0 0.0 0.0 0.0 41.0 47.0 6.0 5.0 1.0 49.0 44.0 7.0 10.0 50.0 43.0 48.0 46.0 13.0 1.0 46.0 9.0 2.0 13.0 13.0 2.0; 0.0 0.0 0.0 0.0 0.0 0.0 0.0 0.0 0.0 0.0 6.0 41.0 0.0 2.0 7.0 49.0 50.0 48.0 8.0 14.0 46.0 25.0 38.0 5.0 49.0 36.0 0.0 3.0 46.0 43.0; 0.0 0.0 0.0 0.0 0.0 0.0 0.0 0.0 0.0 0.0 0.0 13.0 2.0 43.0 3.0 50.0 0.0 42.0 43.0 9.0 7.0 3.0 45.0 19.0 4.0 12.0 39.0 48.0 4.0 50.0; 0.0 0.0 0.0 0.0 0.0 0.0 0.0 0.0 0.0 0.0 0.0 0.0 15.0 1.0 41.0 46.0 1.0 0.0 2.0 49.0 36.0 49.0 35.0 35.0 33.0 44.0 30.0 44.0 2.0 2.0; 0.0 0.0 0.0 0.0 0.0 0.0 0.0 0.0 0.0 0.0 0.0 0.0 0.0 35.0 47.0 42.0 34.0 7.0 47.0 0.0 0.0 50.0 0.0 48.0 3.0 44.0 20.0 5.0 44.0 49.0; 0.0 0.0 0.0 0.0 0.0 0.0 0.0 0.0 0.0 0.0 0.0 0.0 0.0 0.0 0.0 46.0 48.0 15.0 39.0 39.0 47.0 13.0 39.0 49.0 35.0 1.0 4.0 36.0 44.0 46.0; 0.0 0.0 0.0 0.0 0.0 0.0 0.0 0.0 0.0 0.0 0.0 0.0 0.0 0.0 0.0 49.0 17.0 2.0 8.0 41.0 1.0 8.0 33.0 13.0 0.0 43.0 37.0 6.0 50.0 0.0; 0.0 0.0 0.0 0.0 0.0 0.0 0.0 0.0 0.0 0.0 0.0 0.0 0.0 0.0 0.0 0.0 46.0 29.0 39.0 47.0 2.0 49.0 9.0 19.0 0.0 10.0 47.0 4.0 2.0 2.0; 0.0 0.0 0.0 0.0 0.0 0.0 0.0 0.0 0.0 0.0 0.0 0.0 0.0 0.0 0.0 0.0 0.0 0.0 15.0 50.0 19.0 43.0 43.0 1.0 2.0 0.0 2.0 47.0 49.0 17.0; 0.0 0.0 0.0 0.0 0.0 0.0 0.0 0.0 0.0 0.0 0.0 0.0 0.0 0.0 0.0 0.0 0.0 0.0 23.0 0.0 7.0 5.0 50.0 50.0 7.0 0.0 0.0 2.0 1.0 30.0; 0.0 0.0 0.0 0.0 0.0 0.0 0.0 0.0 0.0 0.0 0.0 0.0 0.0 0.0 0.0 0.0 0.0 0.0 0.0 39.0 9.0 22.0 33.0 10.0 18.0 0.0 32.0 8.0 12.0 40.0; 0.0 0.0 0.0 0.0 0.0 0.0 0.0 0.0 0.0 0.0 0.0 0.0 0.0 0.0 0.0 0.0 0.0 0.0 0.0 0.0 49.0 2.0 5.0 47.0 45.0 48.0 46.0 41.0 47.0 46.0; 0.0 0.0 0.0 0.0 0.0 0.0 0.0 0.0 0.0 0.0 0.0 0.0 0.0 0.0 0.0 0.0 0.0 0.0 0.0 0.0 0.0 18.0 49.0 44.0 11.0 47.0 47.0 6.0 5.0 16.0; 0.0 0.0 0.0 0.0 0.0 0.0 0.0 0.0 0.0 0.0 0.0 0.0 0.0 0.0 0.0 0.0 0.0 0.0 0.0 0.0 0.0 0.0 13.0 7.0 14.0 3.0 7.0 6.0 41.0 6.0; 0.0 0.0 0.0 0.0 0.0 0.0 0.0 0.0 0.0 0.0 0.0 0.0 0.0 0.0 0.0 0.0 0.0 0.0 0.0 0.0 0.0 0.0 0.0 5.0 45.0 43.0 21.0 1.0 15.0 0.0; 0.0 0.0 0.0 0.0 0.0 0.0 0.0 0.0 0.0 0.0 0.0 0.0 0.0 0.0 0.0 0.0 0.0 0.0 0.0 0.0 0.0 0.0 0.0 0.0 10.0 43.0 45.0 18.0 9.0 16.0; 0.0 0.0 0.0 0.0 0.0 0.0 0.0 0.0 0.0 0.0 0.0 0.0 0.0 0.0 0.0 0.0 0.0 0.0 0.0 0.0 0.0 0.0 0.0 0.0 0.0 39.0 2.0 43.0 3.0 41.0; 0.0 0.0 0.0 0.0 0.0 0.0 0.0 0.0 0.0 0.0 0.0 0.0 0.0 0.0 0.0 0.0 0.0 0.0 0.0 0.0 0.0 0.0 0.0 0.0 0.0 0.0 42.0 30.0 8.0 12.0; 0.0 0.0 0.0 0.0 0.0 0.0 0.0 0.0 0.0 0.0 0.0 0.0 0.0 0.0 0.0 0.0 0.0 0.0 0.0 0.0 0.0 0.0 0.0 0.0 0.0 0.0 0.0 45.0 12.0 35.0; 0.0 0.0 0.0 0.0 0.0 0.0 0.0 0.0 0.0 0.0 0.0 0.0 0.0 0.0 0.0 0.0 0.0 0.0 0.0 0.0 0.0 0.0 0.0 0.0 0.0 0.0 0.0 0.0 39.0 13.0; 0.0 0.0 0.0 0.0 0.0 0.0 0.0 0.0 0.0 0.0 0.0 0.0 0.0 0.0 0.0 0.0 0.0 0.0 0.0 0.0 0.0 0.0 0.0 0.0 0.0 0.0 0.0 0.0 0.0 2.0; 0.0 0.0 0.0 0.0 0.0 0.0 0.0 0.0 0.0 0.0 0.0 0.0 0.0 0.0 0.0 0.0 0.0 0.0 0.0 0.0 0.0 0.0 0.0 0.0 0.0 0.0 0.0 0.0 0.0 0.0]
